(declare-const x0 Bool)
(declare-const x1 Bool)
(declare-const x2 Bool)
(declare-const x3 Bool)
(declare-const x4 Bool)
(declare-const x5 Bool)
(declare-const x6 Bool)
(assert (and true x0))
(assert (= (= (= x5 x5) (and (and x2 x2) (= (and x6 x1) (= x6 x6)))) (or (= true false) false)))
(assert (= x0 (= false x0)))
(assert (or true (and (and x5 x3) x3)))
(assert (and (= x0 (or x4 false)) (and x0 (or x2 (and true false)))))
(assert (or (= x0 x2) x1))
(assert (= x4 x1))
(assert (and (= x2 true) (or x5 x5)))
(assert (or (= (and x5 x6) (or x5 x6)) (and (or x0 (= x5 false)) (or (and true x1) false))))
(assert (and (= (= (and x0 true) (and x5 false)) (or x5 (and x3 false))) (and (or false x6) x3)))
(check-sat)
